p cnf 50 15
-1 -2 41 0 
-8 6 17 18 19 20 21 22 23 24 32 34 36 38 39 -11 15 40 42 0 
-19 6 8 17 18 20 21 22 23 24 32 34 36 38 39 43 0 
-21 6 8 17 18 19 20 22 23 24 32 34 36 38 39 44 0 
-8 6 17 18 19 20 21 22 23 24 32 34 36 38 39 45 0 
-21 6 8 17 18 19 20 22 23 24 32 34 36 38 39 46 0 
-26 -27 -28 47 0 
-27 47 0 
-29 47 0 
-10 48 0 
-13 49 0 
-30 -7 50 0 
-30 -31 50 0 
-10 -2 45 0 
-2 42 0 
